
Gurobi 11.0.3 (linux64, gurobi_cl) logging started Tue Sep 17 14:09:19 2024

Set parameter Username
Set parameter LogFile to value "gurobi.log"
Using license file /home/halil/gurobi.lic
Academic license - for non-commercial use only - expires 2025-09-16

Gurobi Optimizer version 11.0.3 build v11.0.3rc0 (linux64 - "Ubuntu 22.04.5 LTS")
Copyright (c) 2024, Gurobi Optimization, LLC

Read LP format model from file problem.lp
Reading time = 0.32 seconds
obj: 60801 rows, 390 columns, 556110 nonzeros

CPU model: 11th Gen Intel(R) Core(TM) i7-1165G7 @ 2.80GHz, instruction set [SSE2|AVX|AVX2|AVX512]
Thread count: 4 physical cores, 8 logical processors, using up to 8 threads

Optimize a model with 60801 rows, 390 columns and 556110 nonzeros
Model fingerprint: 0xfbc7cba7
Variable types: 0 continuous, 390 integer (0 binary)
Coefficient statistics:
  Matrix range     [1e+00, 5e+00]
  Objective range  [1e+00, 1e+00]
  Bounds range     [1e+00, 1e+00]
  RHS range        [1e+00, 4e+00]
Found heuristic solution: objective 124.0000000
Presolve removed 680 rows and 40 columns
Presolve time: 0.81s
Presolved: 60121 rows, 350 columns, 555310 nonzeros
Variable types: 0 continuous, 350 integer (350 binary)
Root relaxation presolved: 350 rows, 60471 columns, 555660 nonzeros


Use crossover to convert LP symmetric solution to basic solution...

Root relaxation: objective 2.485423e+00, 92 iterations, 0.33 seconds (0.52 work units)

    Nodes    |    Current Node    |     Objective Bounds      |     Work
 Expl Unexpl |  Obj  Depth IntInf | Incumbent    BestBd   Gap | It/Node Time

     0     0    2.48542    0  258  124.00000    2.48542  98.0%     -    1s
H    0     0                      52.0000000    2.48542  95.2%     -    1s
H    0     0                      20.0000000    2.48542  87.6%     -    1s
     0     0   10.00000    0  281   20.00000   10.00000  50.0%     -    3s
     0     0   11.66052    0  312   20.00000   11.66052  41.7%     -    5s
     0     0   11.88329    0  281   20.00000   11.88329  40.6%     -    6s
     0     0   11.88493    0  279   20.00000   11.88493  40.6%     -    6s
     0     0   13.20869    0  276   20.00000   13.20869  34.0%     -    8s
     0     0   13.27916    0  283   20.00000   13.27916  33.6%     -    8s
     0     0   13.28701    0  276   20.00000   13.28701  33.6%     -    8s
     0     0   13.28757    0  280   20.00000   13.28757  33.6%     -    8s
     0     0   13.94130    0  276   20.00000   13.94130  30.3%     -   10s
     0     0   14.25551    0  284   20.00000   14.25551  28.7%     -   10s
     0     0   14.27052    0  285   20.00000   14.27052  28.6%     -   10s
     0     0   14.27153    0  281   20.00000   14.27153  28.6%     -   10s
     0     0   14.93868    0  301   20.00000   14.93868  25.3%     -   11s
     0     0   15.03828    0  303   20.00000   15.03828  24.8%     -   12s
     0     0   15.14626    0  305   20.00000   15.14626  24.3%     -   12s
     0     0   15.16888    0  296   20.00000   15.16888  24.2%     -   12s
     0     0   15.17350    0  306   20.00000   15.17350  24.1%     -   12s
     0     0   15.56316    0  303   20.00000   15.56316  22.2%     -   13s
     0     0   15.72255    0  300   20.00000   15.72255  21.4%     -   14s
     0     0   15.75753    0  308   20.00000   15.75753  21.2%     -   14s
     0     0   15.77018    0  300   20.00000   15.77018  21.1%     -   14s
     0     0   15.77142    0  299   20.00000   15.77142  21.1%     -   14s
     0     0   15.88968    0  305   20.00000   15.88968  20.6%     -   15s
     0     0   15.88970    0  301   20.00000   15.88970  20.6%     -   15s
     0     0   16.13570    0  296   20.00000   16.13570  19.3%     -   17s
     0     0   16.17185    0  306   20.00000   16.17185  19.1%     -   17s
     0     0   16.23851    0  304   20.00000   16.23851  18.8%     -   17s
     0     0   16.24927    0  306   20.00000   16.24927  18.8%     -   17s
     0     0   16.25362    0  305   20.00000   16.25362  18.7%     -   17s
     0     0   16.25439    0  305   20.00000   16.25439  18.7%     -   17s
     0     0   16.42910    0  303   20.00000   16.42910  17.9%     -   18s
     0     0   16.47293    0  306   20.00000   16.47293  17.6%     -   18s
     0     0   16.50989    0  301   20.00000   16.50989  17.5%     -   19s
     0     0   16.51431    0  309   20.00000   16.51431  17.4%     -   19s
     0     0   16.51583    0  297   20.00000   16.51583  17.4%     -   19s
     0     0   16.51588    0  309   20.00000   16.51588  17.4%     -   19s
     0     0   16.73179    0  309   20.00000   16.73179  16.3%     -   20s
     0     0   16.80025    0  302   20.00000   16.80025  16.0%     -   20s
     0     0   16.80134    0  313   20.00000   16.80134  16.0%     -   20s
     0     0   16.82471    0  312   20.00000   16.82471  15.9%     -   21s
     0     0   16.85553    0  313   20.00000   16.85553  15.7%     -   22s
     0     0   16.87621    0  319   20.00000   16.87621  15.6%     -   22s
     0     0   16.87622    0  320   20.00000   16.87622  15.6%     -   22s
     0     0   16.98764    0  300   20.00000   16.98764  15.1%     -   23s
     0     0   17.09929    0  297   20.00000   17.09929  14.5%     -   23s
     0     0   17.11622    0  281   20.00000   17.11622  14.4%     -   24s
     0     0   17.11774    0  280   20.00000   17.11774  14.4%     -   24s
     0     0   17.11836    0  279   20.00000   17.11836  14.4%     -   24s
     0     0   17.14724    0  286   20.00000   17.14724  14.3%     -   25s
     0     0   17.17466    0  314   20.00000   17.17466  14.1%     -   25s
     0     0   17.17676    0  320   20.00000   17.17676  14.1%     -   25s
     0     0   17.17845    0  311   20.00000   17.17845  14.1%     -   25s
     0     0   17.17937    0  319   20.00000   17.17937  14.1%     -   25s
     0     0   17.17937    0  319   20.00000   17.17937  14.1%     -   26s
     0     0   17.17937    0  319   20.00000   17.17937  14.1%     -   27s
     0     0   17.17937    0  319   20.00000   17.17937  14.1%     -   28s
     0     0   17.17937    0  319   20.00000   17.17937  14.1%     -   29s
     0     0   17.17937    0  319   20.00000   17.17937  14.1%     -   30s
     0     2   17.17937    0  319   20.00000   17.17937  14.1%     -   33s

Cutting planes:
  Cover: 2
  MIR: 38
  Zero half: 12
  Mod-K: 2

Explored 5 nodes (12458 simplex iterations) in 34.28 seconds (69.06 work units)
Thread count was 8 (of 8 available processors)

Solution count 3: 20 52 124 

Optimal solution found (tolerance 1.00e-04)
Best objective 2.000000000000e+01, best bound 2.000000000000e+01, gap 0.0000%
